
Gurobi 11.0.1 (win64) logging started Thu May 16 18:46:49 2024

Set parameter LogFile to value "output/solver_log16.txt"
Gurobi Optimizer version 11.0.1 build v11.0.1rc0 (win64 - Windows 11.0 (22631.2))

CPU model: 11th Gen Intel(R) Core(TM) i7-1165G7 @ 2.80GHz, instruction set [SSE2|AVX|AVX2|AVX512]
Thread count: 4 physical cores, 8 logical processors, using up to 8 threads

Optimize a model with 6153 rows, 1637 columns and 119731 nonzeros
Model fingerprint: 0xc5eaa2ae
Variable types: 568 continuous, 1069 integer (1069 binary)
Coefficient statistics:
  Matrix range     [4e-01, 1e+05]
  Objective range  [1e+00, 1e+02]
  Bounds range     [1e+00, 1e+00]
  RHS range        [1e-02, 1e+05]

User MIP start produced solution with objective 40275.2 (0.01s)
User MIP start produced solution with objective 40275.2 (0.01s)
Loaded user MIP start with objective 40275.2

Presolve removed 1060 rows and 591 columns
Presolve time: 0.12s
Presolved: 5093 rows, 1046 columns, 98932 nonzeros
Variable types: 531 continuous, 515 integer (507 binary)

Root relaxation: objective 5.672613e+04, 2109 iterations, 0.11 seconds (0.17 work units)

    Nodes    |    Current Node    |     Objective Bounds      |     Work
 Expl Unexpl |  Obj  Depth IntInf | Incumbent    BestBd   Gap | It/Node Time

     0     0 56726.1264    0   89 40275.1561 56726.1264  40.8%     -    0s
     0     0 56203.3275    0   84 40275.1561 56203.3275  39.5%     -    0s
     0     0 56194.7009    0   83 40275.1561 56194.7009  39.5%     -    0s
     0     0 56194.7009    0   90 40275.1561 56194.7009  39.5%     -    0s
     0     0 56194.7009    0   90 40275.1561 56194.7009  39.5%     -    0s
     0     0 55965.5455    0  102 40275.1561 55965.5455  39.0%     -    1s
     0     0 55954.2293    0  102 40275.1561 55954.2293  38.9%     -    1s
     0     0 55954.2293    0  114 40275.1561 55954.2293  38.9%     -    1s
     0     0 55954.2293    0  114 40275.1561 55954.2293  38.9%     -    1s
     0     0 54420.1464    0  106 40275.1561 54420.1464  35.1%     -    1s
     0     0 54408.7646    0  109 40275.1561 54408.7646  35.1%     -    2s
     0     0 54321.3647    0  123 40275.1561 54321.3647  34.9%     -    2s
     0     0 54249.2201    0  120 40275.1561 54249.2201  34.7%     -    2s
     0     0 54246.6607    0  121 40275.1561 54246.6607  34.7%     -    2s
     0     0 54246.6607    0  121 40275.1561 54246.6607  34.7%     -    2s
     0     0 54082.8972    0  121 40275.1561 54082.8972  34.3%     -    3s
     0     0 53693.5033    0  117 40275.1561 53693.5033  33.3%     -    3s
     0     0 53119.0379    0  115 40275.1561 53119.0379  31.9%     -    3s
     0     0 53113.0040    0  111 40275.1561 53113.0040  31.9%     -    3s
     0     0 53113.0040    0  117 40275.1561 53113.0040  31.9%     -    3s
     0     0 53113.0040    0  116 40275.1561 53113.0040  31.9%     -    3s
     0     0 53078.1723    0  111 40275.1561 53078.1723  31.8%     -    4s
     0     0 53078.1723    0  111 40275.1561 53078.1723  31.8%     -    4s
     0     2 53078.1723    0  111 40275.1561 53078.1723  31.8%     -    4s
     3     8 53078.1723    2  104 40275.1561 53078.1723  31.8%  1367    5s
    83    87 43261.8682   16   56 40275.1561 53078.1723  31.8%  1213   10s
   171   149 41753.9516   10   69 40275.1561 53078.1723  31.8%  1260   15s
H  320   270                    40275.477072 52682.6809  30.8%   980   18s
   376   305 44327.2790    7   63 40275.4771 52354.2699  30.0%   923   20s
   521   397 42167.4560   11   80 40275.4771 52127.9365  29.4%   973   25s
H  630   430                    40275.494084 51234.0405  27.2%  1012   30s
H  633   430                    40275.519949 51234.0405  27.2%  1013   30s
H  639   430                    40276.527188 51234.0405  27.2%  1015   30s
   667   432 41474.9637    9   78 40276.5272 51234.0405  27.2%  1027   36s
   715   456 46548.1520    6   83 40276.5272 50786.8351  26.1%  1036   40s
   897   495 43333.1840   13   57 40276.5272 50407.6419  25.2%  1046   45s
  1051   537 44925.0815   11   59 40276.5272 49895.9239  23.9%  1086   51s
  1193   560     cutoff    8      40276.5272 49723.9504  23.5%  1096   55s
  1348   583 44017.2382    7   55 40276.5272 49479.1181  22.8%  1112   60s

Cutting planes:
  Gomory: 3
  Implied bound: 20
  MIR: 124
  RLT: 8
  Relax-and-lift: 2
  BQP: 3

Explored 1380 nodes (1556474 simplex iterations) in 60.02 seconds (148.90 work units)
Thread count was 8 (of 8 available processors)

Solution count 5: 40276.5 40275.5 40275.5 ... 40275.2

Time limit reached
Best objective 4.027652718788e+04, best bound 4.947911809245e+04, gap 22.8485%
